outputs/case_370.model.txt
insurance_funds = -5
participate_in_management_by_agreement_or_authorization = False
is_spouse = False
reserve_calculated_by_insurance_type = False
corporate_bonds_per_company_amount = 0
appoint_person_as_manager = False
external_reviewer_approved_by_board = False
business_year_end = 1
government_bonds_amount = 0
stocks_per_company_percentage = 0
reported_to_authority = False
is_self = False
external_review_report_false_or_omitted = True
insurance_or_representative_is_director_or_supervisor = False
other_transaction_limit_complied = False
external_actuarial_reviewer_hired = False
investment_trust_funds_per_fund_percentage = 0
investment_trust_funds_total_amount = 0
stocks_per_company_amount = 0
financial_bonds_amount = 0
corporate_bonds_per_company_equity_percentage = 0
loan_limit_complied = False
signing_actuary_approved_by_board = False
is_second_degree_relative = False
securitized_products_and_others_amount = 0
investment_prohibited_conditions = True
serve_as_trust_supervisor_of_securitized_products = False
reserve_recorded_in_special_ledger = False
signing_report_false_or_omitted = True
signing_actuary_assigned = False
actuarial_staff_hired = False
is_responsible_person_business = False
exercise_voting_rights_on_director_or_supervisor_election = False
internal_handling_established = True
internal_control_system_established = True
internal_handling_system_established = True
related_party_loan_limit_compliance = False
internal_control_executed = True
related_person_classification = 0
internal_control_and_handling_penalty = False
internal_handling_executed = True
internal_control_established = True
penalty = False
external_actuarial_review_assigned = False
actuarial_staff_and_external_reviewer_approved = False
investment_limit_compliance = False
reserve_calculation_recorded = False
actuarial_staff_assigned = False
actuarial_reports_fair_and_true = False